\ Equation counts
\     Total        E        G        L        N        X        C        B
\	147	147	0	0
\
\ Variable counts
\                  x        b        i      s1s      s2s       sc       si
\     Total     cont   binary  integer     sos1     sos2    scont     sint
\	50	50

\ Nonzero counts
\     Total    const       NL      DLL
\
\
Minimize
 obj: [ - 13.0 x_1 * x_1 + 18.0 x_1 * x_2 - 20.0 x_1 * x_3 - 1.5 x_1 * x_5 + 9.0 x_1 * x_11 + 20.5 x_1 * x_13 + 15.5 x_1 * x_17 - 5.5 x_1 * x_18 + 3.0 x_1 * x_20 - 6.5 x_1 * x_21 - 1.0 x_1 * x_23 - 3.0 x_1 * x_25 + 8.0 x_1 * x_27 + 18.0 x_1 * x_32 - 6.5 x_1 * x_36 + 6.5 x_1 * x_37 + 20.5 x_1 * x_39 + 23.5 x_1 * x_41 + 10.5 x_1 * x_42 - 16.0 x_1 * x_43 + 10.5 x_1 * x_45 + 6.0 x_1 * x_46 - 18.0 x_1 * x_47 + 12.0 x_1 * x_49 + 18.0 x_2 * x_1 + 21.0 x_2 * x_8 - 0.5 x_2 * x_10 + 7.5 x_2 * x_11 + 11.5 x_2 * x_12 + 2.0 x_2 * x_15 + 15.0 x_2 * x_17 + 3.0 x_2 * x_18 + 14.5 x_2 * x_19 - 15.5 x_2 * x_23 + 18.5 x_2 * x_24 + 5.0 x_2 * x_25 + 23.0 x_2 * x_28 + 12.0 x_2 * x_29 + 21.0 x_2 * x_32 + 11.5 x_2 * x_33 - 3.5 x_2 * x_36 + 14.5 x_2 * x_41 + 14.0 x_2 * x_42 + 1.5 x_2 * x_44 + 1.5 x_2 * x_45 - 20.0 x_3 * x_1 + 6.0 x_3 * x_4 + 17.5 x_3 * x_6 - 17.5 x_3 * x_7 + 4.0 x_3 * x_10 - 20.0 x_3 * x_13 + 24.5 x_3 * x_14 + 2.0 x_3 * x_15 + 23.5 x_3 * x_17 + 5.5 x_3 * x_18 - 3.5 x_3 * x_20 + 13.5 x_3 * x_21 + 1.0 x_3 * x_22 - 1.5 x_3 * x_24 + 4.5 x_3 * x_25 - 23.0 x_3 * x_29 + 13.0 x_3 * x_30 - 7.5 x_3 * x_32 - 0.5 x_3 * x_35 + 20.5 x_3 * x_39 + 15.5 x_3 * x_41 - 21.5 x_3 * x_42 - 10.0 x_3 * x_46 + 24.0 x_3 * x_47 + 4.0 x_3 * x_48 + 1.0 x_3 * x_50 + 6.0 x_4 * x_3 - 7.0 x_4 * x_4 + 9.0 x_4 * x_5 - 13.5 x_4 * x_6 + 24.0 x_4 * x_7 - 23.0 x_4 * x_9 - 11.5 x_4 * x_14 - 21.0 x_4 * x_21 - 20.5 x_4 * x_22 + 21.0 x_4 * x_24 - 20.0 x_4 * x_29 - 23.5 x_4 * x_30 + 12.5 x_4 * x_31 - 1.5 x_4 * x_33 - 7.0 x_4 * x_34 + 2.5 x_4 * x_37 - 20.5 x_4 * x_41 - 19.5 x_4 * x_42 + 23.5 x_4 * x_46 + 16.0 x_4 * x_48 - 3.5 x_4 * x_49 - 1.5 x_5 * x_1 + 9.0 x_5 * x_4 - 5.0 x_5 * x_5 + 8.0 x_5 * x_7 - 1.5 x_5 * x_10 + 5.0 x_5 * x_11 - 20.5 x_5 * x_13 + 23.0 x_5 * x_20 + 8.5 x_5 * x_23 - 19.0 x_5 * x_25 - 2.5 x_5 * x_29 - 4.0 x_5 * x_30 + 19.5 x_5 * x_31 + 2.5 x_5 * x_33 + 21.0 x_5 * x_35 - 19.0 x_5 * x_36 - 7.0 x_5 * x_43 + 7.0 x_5 * x_44 + 18.0 x_5 * x_47 + 5.0 x_5 * x_49 - 23.0 x_5 * x_50 + 17.5 x_6 * x_3 - 13.5 x_6 * x_4 - 12.5 x_6 * x_7 + 24.0 x_6 * x_8 + 22.5 x_6 * x_14 + 19.0 x_6 * x_15 + 14.0 x_6 * x_17 + 20.5 x_6 * x_18 - 4.0 x_6 * x_22 - 19.0 x_6 * x_23 - 12.5 x_6 * x_31 - 3.5 x_6 * x_36 + 7.5 x_6 * x_37 + 6.5 x_6 * x_38 + 14.0 x_6 * x_42 - 16.0 x_6 * x_43 - 23.0 x_6 * x_45 - 18.0 x_6 * x_46 - 15.0 x_6 * x_47 - 17.5 x_7 * x_3 + 24.0 x_7 * x_4 + 8.0 x_7 * x_5 - 12.5 x_7 * x_6 + 18.0 x_7 * x_8 + 2.5 x_7 * x_11 + 1.5 x_7 * x_12 - 13.5 x_7 * x_13 + 22.5 x_7 * x_14 - 24.5 x_7 * x_15 - 17.5 x_7 * x_18 - 10.0 x_7 * x_21 - 10.5 x_7 * x_23 + 15.0 x_7 * x_24 - 1.5 x_7 * x_26 - 3.5 x_7 * x_27 + 23.0 x_7 * x_30 - 2.0 x_7 * x_31 + 18.5 x_7 * x_32 - 23.5 x_7 * x_38 - 24.5 x_7 * x_39 + 8.0 x_7 * x_40 + 12.5 x_7 * x_41 + 3.5 x_7 * x_43 - 12.5 x_7 * x_46 + 11.5 x_7 * x_49 + 22.5 x_7 * x_50 + 21.0 x_8 * x_2 + 24.0 x_8 * x_6 + 18.0 x_8 * x_7 - 19.0 x_8 * x_9 - 7.5 x_8 * x_13 + 17.0 x_8 * x_16 + 11.0 x_8 * x_17 + 9.0 x_8 * x_18 + 2.5 x_8 * x_19 - 15.5 x_8 * x_20 - 24.0 x_8 * x_22 - 3.5 x_8 * x_23 + 6.5 x_8 * x_24 + 4.5 x_8 * x_26 + 0.5 x_8 * x_27 - 14.0 x_8 * x_30 - 4.5 x_8 * x_31 - 10.5 x_8 * x_32 - 18.0 x_8 * x_34 + 10.5 x_8 * x_36 - 4.5 x_8 * x_38 - 2.0 x_8 * x_41 - 24.0 x_8 * x_42 + 5.5 x_8 * x_43 + 7.0 x_8 * x_45 + 1.0 x_8 * x_46 - 10.5 x_8 * x_47 - 16.0 x_8 * x_49 + 22.0 x_8 * x_50 - 23.0 x_9 * x_4 - 19.0 x_9 * x_8 - 15.0 x_9 * x_14 - 1.5 x_9 * x_15 - 20.0 x_9 * x_20 + 7.0 x_9 * x_22 - 4.0 x_9 * x_24 + 21.0 x_9 * x_26 - 5.0 x_9 * x_31 + 2.0 x_9 * x_33 - 0.5 x_9 * x_35 + 23.5 x_9 * x_39 - 14.5 x_9 * x_42 + 12.5 x_9 * x_44 - 18.5 x_9 * x_47 + 2.0 x_9 * x_49 + 10.0 x_9 * x_50 - 0.5 x_10 * x_2 + 4.0 x_10 * x_3 - 1.5 x_10 * x_5 - 2.5 x_10 * x_10 - 13.0 x_10 * x_11 + 11.0 x_10 * x_12 + 24.5 x_10 * x_14 - 13.0 x_10 * x_15 + 11.5 x_10 * x_16 - 5.0 x_10 * x_18 - 1.5 x_10 * x_19 + 1.5 x_10 * x_21 + 24.5 x_10 * x_22 - 22.5 x_10 * x_23 - 21.5 x_10 * x_25 + 0.5 x_10 * x_26 + 5.5 x_10 * x_27 - 23.5 x_10 * x_31 - 8.0 x_10 * x_32 - 10.5 x_10 * x_34 - 3.5 x_10 * x_35 + 3.5 x_10 * x_37 - 3.0 x_10 * x_38 - 1.0 x_10 * x_40 - 12.0 x_10 * x_41 + 17.5 x_10 * x_43 - 14.0 x_10 * x_44 - 18.0 x_10 * x_45 - 17.5 x_10 * x_46 - 8.0 x_10 * x_50 + 9.0 x_11 * x_1 + 7.5 x_11 * x_2 + 5.0 x_11 * x_5 + 2.5 x_11 * x_7 - 13.0 x_11 * x_10 - 0.5 x_11 * x_11 + 7.5 x_11 * x_13 - 12.5 x_11 * x_16 + 19.5 x_11 * x_18 - 3.5 x_11 * x_19 - 22.0 x_11 * x_21 - 17.5 x_11 * x_22 + 11.5 x_11 * x_24 - 2.5 x_11 * x_25 - 8.5 x_11 * x_26 - 2.5 x_11 * x_30 - 14.0 x_11 * x_31 + 17.5 x_11 * x_32 - 6.5 x_11 * x_34 + 22.0 x_11 * x_37 + 15.5 x_11 * x_39 - 18.0 x_11 * x_42 + 16.5 x_11 * x_47 - 18.0 x_11 * x_48 + 20.0 x_11 * x_49 + 11.5 x_12 * x_2 + 1.5 x_12 * x_7 + 11.0 x_12 * x_10 - 5.0 x_12 * x_12 - 20.0 x_12 * x_13 + 15.0 x_12 * x_14 + 17.0 x_12 * x_15 - 15.5 x_12 * x_16 + 9.0 x_12 * x_17 + 4.5 x_12 * x_19 - 17.5 x_12 * x_20 - 8.0 x_12 * x_21 + 22.0 x_12 * x_22 + 0.5 x_12 * x_23 - 2.0 x_12 * x_27 - 17.5 x_12 * x_29 - 22.0 x_12 * x_38 - 11.0 x_12 * x_39 - 9.5 x_12 * x_41 - 8.0 x_12 * x_43 - 24.0 x_12 * x_44 - 21.5 x_12 * x_46 - 9.5 x_12 * x_48 + 20.5 x_13 * x_1 - 20.0 x_13 * x_3 - 20.5 x_13 * x_5 - 13.5 x_13 * x_7 - 7.5 x_13 * x_8 + 7.5 x_13 * x_11 - 20.0 x_13 * x_12 - 17.5 x_13 * x_14 - 5.5 x_13 * x_15 + 0.5 x_13 * x_16 + 6.5 x_13 * x_17 + 23.0 x_13 * x_18 - 19.0 x_13 * x_19 - 4.0 x_13 * x_20 - 1.0 x_13 * x_22 - 22.0 x_13 * x_23 + 5.0 x_13 * x_26 + 21.5 x_13 * x_27 + 14.0 x_13 * x_28 + 12.5 x_13 * x_29 + 17.5 x_13 * x_30 - 4.0 x_13 * x_34 - 10.5 x_13 * x_41 - 19.0 x_13 * x_42 + 12.0 x_13 * x_45 - 4.5 x_13 * x_46 - 18.5 x_13 * x_48 + 4.5 x_13 * x_49 + 6.5 x_13 * x_50 + 24.5 x_14 * x_3 - 11.5 x_14 * x_4 + 22.5 x_14 * x_6 + 22.5 x_14 * x_7 - 15.0 x_14 * x_9 + 24.5 x_14 * x_10 + 15.0 x_14 * x_12 - 17.5 x_14 * x_13 - 23.5 x_14 * x_15 - 14.0 x_14 * x_16 - 16.0 x_14 * x_19 + 20.0 x_14 * x_22 - 18.5 x_14 * x_23 - 22.0 x_14 * x_24 + 23.0 x_14 * x_27 + 3.0 x_14 * x_28 + 16.5 x_14 * x_31 - 3.5 x_14 * x_32 + 16.5 x_14 * x_33 + 16.0 x_14 * x_35 + 1.0 x_14 * x_36 - 15.0 x_14 * x_38 + 3.0 x_14 * x_39 - 13.0 x_14 * x_40 + 6.0 x_14 * x_41 - 13.5 x_14 * x_42 + 4.0 x_14 * x_46 + 15.5 x_14 * x_47 + 6.0 x_14 * x_50 + 2.0 x_15 * x_2 + 2.0 x_15 * x_3 + 19.0 x_15 * x_6 - 24.5 x_15 * x_7 - 1.5 x_15 * x_9 - 13.0 x_15 * x_10 + 17.0 x_15 * x_12 - 5.5 x_15 * x_13 - 23.5 x_15 * x_14 + 23.5 x_15 * x_15 - 5.0 x_15 * x_16 - 3.5 x_15 * x_19 - 24.0 x_15 * x_21 - 14.0 x_15 * x_22 - 24.0 x_15 * x_23 + 17.0 x_15 * x_24 + 24.5 x_15 * x_25 + 19.0 x_15 * x_26 + 17.5 x_15 * x_30 - 23.5 x_15 * x_31 + 18.5 x_15 * x_35 - 3.5 x_15 * x_36 - 1.0 x_15 * x_38 - 21.0 x_15 * x_39 + 4.0 x_15 * x_40 - 6.5 x_15 * x_41 + 5.5 x_15 * x_42 - 11.0 x_15 * x_45 - 1.5 x_15 * x_48 + 19.0 x_15 * x_49 + 17.0 x_16 * x_8 + 11.5 x_16 * x_10 - 12.5 x_16 * x_11 - 15.5 x_16 * x_12 + 0.5 x_16 * x_13 - 14.0 x_16 * x_14 - 5.0 x_16 * x_15 + 24.0 x_16 * x_21 - 19.0 x_16 * x_22 + 17.0 x_16 * x_24 + 7.0 x_16 * x_25 + 17.5 x_16 * x_26 - 2.0 x_16 * x_33 - 14.0 x_16 * x_35 + 23.5 x_16 * x_38 + 11.5 x_16 * x_40 - 9.0 x_16 * x_47 + 15.5 x_17 * x_1 + 15.0 x_17 * x_2 + 23.5 x_17 * x_3 + 14.0 x_17 * x_6 + 11.0 x_17 * x_8 + 9.0 x_17 * x_12 + 6.5 x_17 * x_13 + 7.0 x_17 * x_23 + 12.5 x_17 * x_27 - 6.5 x_17 * x_29 - 20.5 x_17 * x_30 - 2.0 x_17 * x_34 + 3.0 x_17 * x_37 - 24.5 x_17 * x_38 + 17.5 x_17 * x_40 - 19.5 x_17 * x_41 - 13.0 x_17 * x_42 + 24.0 x_17 * x_43 - 8.0 x_17 * x_44 + 16.5 x_17 * x_45 - 20.5 x_17 * x_46 + 7.0 x_17 * x_47 + 21.0 x_17 * x_49 - 5.5 x_18 * x_1 + 3.0 x_18 * x_2 + 5.5 x_18 * x_3 + 20.5 x_18 * x_6 - 17.5 x_18 * x_7 + 9.0 x_18 * x_8 - 5.0 x_18 * x_10 + 19.5 x_18 * x_11 + 23.0 x_18 * x_13 + 19.5 x_18 * x_18 - 0.5 x_18 * x_20 - 17.0 x_18 * x_28 + 6.0 x_18 * x_30 + 17.5 x_18 * x_31 + 5.5 x_18 * x_33 + 16.5 x_18 * x_35 - 1.5 x_18 * x_36 + 4.5 x_18 * x_37 - 15.0 x_18 * x_38 + 22.0 x_18 * x_39 + 5.0 x_18 * x_41 - 11.0 x_18 * x_42 - 4.5 x_18 * x_43 + 24.5 x_18 * x_45 + 24.5 x_18 * x_47 + 14.5 x_19 * x_2 + 2.5 x_19 * x_8 - 1.5 x_19 * x_10 - 3.5 x_19 * x_11 + 4.5 x_19 * x_12 - 19.0 x_19 * x_13 - 16.0 x_19 * x_14 - 3.5 x_19 * x_15 + 3.5 x_19 * x_19 + 15.5 x_19 * x_21 - 15.5 x_19 * x_22 + 22.0 x_19 * x_23 - 19.0 x_19 * x_25 - 20.5 x_19 * x_26 - 12.5 x_19 * x_29 + 7.0 x_19 * x_31 + 15.5 x_19 * x_33 - 12.0 x_19 * x_36 - 23.0 x_19 * x_37 + 17.0 x_19 * x_38 - 17.5 x_19 * x_40 + 4.0 x_19 * x_42 + 14.5 x_19 * x_43 + 23.5 x_19 * x_44 - 24.0 x_19 * x_45 - 19.0 x_19 * x_47 - 13.5 x_19 * x_50 + 3.0 x_20 * x_1 - 3.5 x_20 * x_3 + 23.0 x_20 * x_5 - 15.5 x_20 * x_8 - 20.0 x_20 * x_9 - 17.5 x_20 * x_12 - 4.0 x_20 * x_13 - 0.5 x_20 * x_18 - 16.5 x_20 * x_20 + 11.5 x_20 * x_21 + 20.5 x_20 * x_22 + 20.5 x_20 * x_25 - 24.0 x_20 * x_30 + 15.5 x_20 * x_31 - 4.0 x_20 * x_32 + 23.0 x_20 * x_34 - 17.0 x_20 * x_35 - 8.0 x_20 * x_37 - 4.0 x_20 * x_43 - 12.5 x_20 * x_44 - 4.5 x_20 * x_45 - 2.0 x_20 * x_46 + 19.0 x_20 * x_48 - 10.0 x_20 * x_49 - 6.5 x_21 * x_1 + 13.5 x_21 * x_3 - 21.0 x_21 * x_4 - 10.0 x_21 * x_7 + 1.5 x_21 * x_10 - 22.0 x_21 * x_11 - 8.0 x_21 * x_12 - 24.0 x_21 * x_15 + 24.0 x_21 * x_16 + 15.5 x_21 * x_19 + 11.5 x_21 * x_20 - 4.0 x_21 * x_21 - 17.5 x_21 * x_22 - 6.5 x_21 * x_24 - 7.0 x_21 * x_27 - 6.0 x_21 * x_29 - 4.0 x_21 * x_33 + 7.0 x_21 * x_34 + 23.0 x_21 * x_36 + 24.0 x_21 * x_37 - 6.0 x_21 * x_38 + 15.0 x_21 * x_39 - 19.5 x_21 * x_41 + 18.5 x_21 * x_42 - 11.0 x_21 * x_46 + 7.0 x_21 * x_49 + 2.5 x_21 * x_50 + 1.0 x_22 * x_3 - 20.5 x_22 * x_4 - 4.0 x_22 * x_6 - 24.0 x_22 * x_8 + 7.0 x_22 * x_9 + 24.5 x_22 * x_10 - 17.5 x_22 * x_11 + 22.0 x_22 * x_12 - 1.0 x_22 * x_13 + 20.0 x_22 * x_14 - 14.0 x_22 * x_15 - 19.0 x_22 * x_16 - 15.5 x_22 * x_19 + 20.5 x_22 * x_20 - 17.5 x_22 * x_21 + 3.5 x_22 * x_22 - 14.0 x_22 * x_23 + 6.5 x_22 * x_25 + 0.5 x_22 * x_28 + 4.0 x_22 * x_31 + 10.0 x_22 * x_32 + 10.0 x_22 * x_34 + 6.5 x_22 * x_36 + 3.5 x_22 * x_38 - 0.5 x_22 * x_39 - 19.0 x_22 * x_40 - 23.5 x_22 * x_42 - 4.0 x_22 * x_44 - 8.0 x_22 * x_45 - 23.0 x_22 * x_46 - 1.0 x_22 * x_47 - 19.5 x_22 * x_48 + 24.5 x_22 * x_49 - 1.0 x_23 * x_1 - 15.5 x_23 * x_2 + 8.5 x_23 * x_5 - 19.0 x_23 * x_6 - 10.5 x_23 * x_7 - 3.5 x_23 * x_8 - 22.5 x_23 * x_10 + 0.5 x_23 * x_12 - 22.0 x_23 * x_13 - 18.5 x_23 * x_14 - 24.0 x_23 * x_15 + 7.0 x_23 * x_17 + 22.0 x_23 * x_19 - 14.0 x_23 * x_22 - 3.0 x_23 * x_23 - 1.5 x_23 * x_24 - 0.5 x_23 * x_27 + 21.5 x_23 * x_28 + 23.5 x_23 * x_29 + 19.5 x_23 * x_30 + 10.0 x_23 * x_34 - 1.0 x_23 * x_35 + 13.5 x_23 * x_36 + 18.0 x_23 * x_37 + 7.0 x_23 * x_40 + 3.5 x_23 * x_41 + 0.5 x_23 * x_43 - 17.0 x_23 * x_44 + 9.5 x_23 * x_45 - 5.5 x_23 * x_48 + 18.5 x_24 * x_2 - 1.5 x_24 * x_3 + 21.0 x_24 * x_4 + 15.0 x_24 * x_7 + 6.5 x_24 * x_8 - 4.0 x_24 * x_9 + 11.5 x_24 * x_11 - 22.0 x_24 * x_14 + 17.0 x_24 * x_15 + 17.0 x_24 * x_16 - 6.5 x_24 * x_21 - 1.5 x_24 * x_23 - 20.0 x_24 * x_24 + 1.0 x_24 * x_28 + 24.5 x_24 * x_39 - 23.5 x_24 * x_40 + 21.5 x_24 * x_42 + 11.5 x_24 * x_43 - 18.5 x_24 * x_47 + 19.0 x_24 * x_48 - 13.5 x_24 * x_49 - 3.0 x_25 * x_1 + 5.0 x_25 * x_2 + 4.5 x_25 * x_3 - 19.0 x_25 * x_5 - 21.5 x_25 * x_10 - 2.5 x_25 * x_11 + 24.5 x_25 * x_15 + 7.0 x_25 * x_16 - 19.0 x_25 * x_19 + 20.5 x_25 * x_20 + 6.5 x_25 * x_22 - 22.0 x_25 * x_25 + 24.5 x_25 * x_26 - 13.5 x_25 * x_29 - 4.0 x_25 * x_31 + 20.0 x_25 * x_34 - 11.5 x_25 * x_35 - 8.0 x_25 * x_37 - 8.0 x_25 * x_42 - 11.5 x_25 * x_44 + 5.5 x_25 * x_45 + 4.0 x_25 * x_47 - 13.0 x_25 * x_48 - 19.5 x_25 * x_49 - 1.5 x_26 * x_7 + 4.5 x_26 * x_8 + 21.0 x_26 * x_9 + 0.5 x_26 * x_10 - 8.5 x_26 * x_11 + 5.0 x_26 * x_13 + 19.0 x_26 * x_15 + 17.5 x_26 * x_16 - 20.5 x_26 * x_19 + 24.5 x_26 * x_25 + 14.5 x_26 * x_27 - 14.0 x_26 * x_29 + 11.0 x_26 * x_30 - 18.0 x_26 * x_31 - 24.0 x_26 * x_32 + 3.0 x_26 * x_35 + 6.0 x_26 * x_37 - 16.0 x_26 * x_43 + 6.5 x_26 * x_44 + 14.5 x_26 * x_45 - 22.5 x_26 * x_46 - 3.5 x_26 * x_47 + 11.0 x_26 * x_48 + 10.0 x_26 * x_49 + 13.0 x_26 * x_50 + 8.0 x_27 * x_1 - 3.5 x_27 * x_7 + 0.5 x_27 * x_8 + 5.5 x_27 * x_10 - 2.0 x_27 * x_12 + 21.5 x_27 * x_13 + 23.0 x_27 * x_14 + 12.5 x_27 * x_17 - 7.0 x_27 * x_21 - 0.5 x_27 * x_23 + 14.5 x_27 * x_26 - 3.5 x_27 * x_28 + 23.5 x_27 * x_32 + 6.5 x_27 * x_33 + 16.0 x_27 * x_35 + 2.5 x_27 * x_37 + 24.5 x_27 * x_38 - 3.5 x_27 * x_39 - 4.0 x_27 * x_40 + 5.5 x_27 * x_41 + 24.5 x_27 * x_44 + 15.5 x_27 * x_45 - 13.0 x_27 * x_48 + 12.5 x_27 * x_49 + 24.5 x_27 * x_50 + 23.0 x_28 * x_2 + 14.0 x_28 * x_13 + 3.0 x_28 * x_14 - 17.0 x_28 * x_18 + 0.5 x_28 * x_22 + 21.5 x_28 * x_23 + 1.0 x_28 * x_24 - 3.5 x_28 * x_27 - 7.0 x_28 * x_29 - 11.5 x_28 * x_31 - 1.5 x_28 * x_32 - 16.0 x_28 * x_35 - 6.0 x_28 * x_36 + 17.0 x_28 * x_37 - 24.0 x_28 * x_39 + 8.0 x_28 * x_40 - 14.0 x_28 * x_41 + 10.5 x_28 * x_42 + 13.0 x_28 * x_43 + 22.0 x_28 * x_47 + 21.0 x_28 * x_50 + 12.0 x_29 * x_2 - 23.0 x_29 * x_3 - 20.0 x_29 * x_4 - 2.5 x_29 * x_5 - 17.5 x_29 * x_12 + 12.5 x_29 * x_13 - 6.5 x_29 * x_17 - 12.5 x_29 * x_19 - 6.0 x_29 * x_21 + 23.5 x_29 * x_23 - 13.5 x_29 * x_25 - 14.0 x_29 * x_26 - 7.0 x_29 * x_28 - 18.0 x_29 * x_29 - 14.5 x_29 * x_30 - 14.0 x_29 * x_32 + 5.5 x_29 * x_33 + 4.5 x_29 * x_41 + 5.0 x_29 * x_42 + 18.0 x_29 * x_43 - 5.5 x_29 * x_44 + 7.5 x_29 * x_45 + 8.5 x_29 * x_48 + 13.0 x_30 * x_3 - 23.5 x_30 * x_4 - 4.0 x_30 * x_5 + 23.0 x_30 * x_7 - 14.0 x_30 * x_8 - 2.5 x_30 * x_11 + 17.5 x_30 * x_13 + 17.5 x_30 * x_15 - 20.5 x_30 * x_17 + 6.0 x_30 * x_18 - 24.0 x_30 * x_20 + 19.5 x_30 * x_23 + 11.0 x_30 * x_26 - 14.5 x_30 * x_29 + 15.5 x_30 * x_30 - 18.5 x_30 * x_32 + 2.5 x_30 * x_38 + 18.0 x_30 * x_40 + 4.0 x_30 * x_41 + 21.5 x_30 * x_42 + 6.5 x_30 * x_45 - 19.0 x_30 * x_47 - 6.5 x_30 * x_49 + 12.5 x_31 * x_4 + 19.5 x_31 * x_5 - 12.5 x_31 * x_6 - 2.0 x_31 * x_7 - 4.5 x_31 * x_8 - 5.0 x_31 * x_9 - 23.5 x_31 * x_10 - 14.0 x_31 * x_11 + 16.5 x_31 * x_14 - 23.5 x_31 * x_15 + 17.5 x_31 * x_18 + 7.0 x_31 * x_19 + 15.5 x_31 * x_20 + 4.0 x_31 * x_22 - 4.0 x_31 * x_25 - 18.0 x_31 * x_26 - 11.5 x_31 * x_28 - 16.0 x_31 * x_31 + 11.5 x_31 * x_33 - 8.0 x_31 * x_35 + 1.0 x_31 * x_36 - 7.0 x_31 * x_37 + 8.5 x_31 * x_44 - 3.0 x_31 * x_46 + 5.0 x_31 * x_47 + 18.0 x_32 * x_1 + 21.0 x_32 * x_2 - 7.5 x_32 * x_3 + 18.5 x_32 * x_7 - 10.5 x_32 * x_8 - 8.0 x_32 * x_10 + 17.5 x_32 * x_11 - 3.5 x_32 * x_14 - 4.0 x_32 * x_20 + 10.0 x_32 * x_22 - 24.0 x_32 * x_26 + 23.5 x_32 * x_27 - 1.5 x_32 * x_28 - 14.0 x_32 * x_29 - 18.5 x_32 * x_30 - 20.5 x_32 * x_33 - 0.5 x_32 * x_35 + 23.5 x_32 * x_36 - 6.0 x_32 * x_39 - 17.0 x_32 * x_44 + 4.0 x_32 * x_47 + 22.0 x_32 * x_49 + 11.5 x_33 * x_2 - 1.5 x_33 * x_4 + 2.5 x_33 * x_5 + 2.0 x_33 * x_9 + 16.5 x_33 * x_14 - 2.0 x_33 * x_16 + 5.5 x_33 * x_18 + 15.5 x_33 * x_19 - 4.0 x_33 * x_21 + 6.5 x_33 * x_27 + 5.5 x_33 * x_29 + 11.5 x_33 * x_31 - 20.5 x_33 * x_32 + 16.0 x_33 * x_33 - 4.0 x_33 * x_34 + 13.0 x_33 * x_35 + 10.5 x_33 * x_37 + 20.5 x_33 * x_38 - 12.5 x_33 * x_41 - 15.0 x_33 * x_42 + 3.5 x_33 * x_43 - 12.5 x_33 * x_44 + 11.0 x_33 * x_45 + 8.0 x_33 * x_46 + 2.5 x_33 * x_47 + 11.0 x_33 * x_48 - 7.0 x_34 * x_4 - 18.0 x_34 * x_8 - 10.5 x_34 * x_10 - 6.5 x_34 * x_11 - 4.0 x_34 * x_13 - 2.0 x_34 * x_17 + 23.0 x_34 * x_20 + 7.0 x_34 * x_21 + 10.0 x_34 * x_22 + 10.0 x_34 * x_23 + 20.0 x_34 * x_25 - 4.0 x_34 * x_33 - 6.0 x_34 * x_35 + 1.5 x_34 * x_36 + 6.5 x_34 * x_37 - 7.0 x_34 * x_42 + 8.0 x_34 * x_44 + 21.5 x_34 * x_47 - 0.5 x_35 * x_3 + 21.0 x_35 * x_5 - 0.5 x_35 * x_9 - 3.5 x_35 * x_10 + 16.0 x_35 * x_14 + 18.5 x_35 * x_15 - 14.0 x_35 * x_16 + 16.5 x_35 * x_18 - 17.0 x_35 * x_20 - 1.0 x_35 * x_23 - 11.5 x_35 * x_25 + 3.0 x_35 * x_26 + 16.0 x_35 * x_27 - 16.0 x_35 * x_28 - 8.0 x_35 * x_31 - 0.5 x_35 * x_32 + 13.0 x_35 * x_33 - 6.0 x_35 * x_34 - 17.5 x_35 * x_37 - 17.0 x_35 * x_38 - 11.5 x_35 * x_40 + 8.0 x_35 * x_42 + 22.5 x_35 * x_43 - 10.5 x_35 * x_46 - 7.0 x_35 * x_48 - 12.5 x_35 * x_49 - 12.0 x_35 * x_50 - 6.5 x_36 * x_1 - 3.5 x_36 * x_2 - 19.0 x_36 * x_5 - 3.5 x_36 * x_6 + 10.5 x_36 * x_8 + 1.0 x_36 * x_14 - 3.5 x_36 * x_15 - 1.5 x_36 * x_18 - 12.0 x_36 * x_19 + 23.0 x_36 * x_21 + 6.5 x_36 * x_22 + 13.5 x_36 * x_23 - 6.0 x_36 * x_28 + 1.0 x_36 * x_31 + 23.5 x_36 * x_32 + 1.5 x_36 * x_34 + 1.5 x_36 * x_36 - 9.0 x_36 * x_39 - 14.5 x_36 * x_41 - 11.5 x_36 * x_47 + 8.5 x_36 * x_49 + 6.5 x_36 * x_50 + 6.5 x_37 * x_1 + 2.5 x_37 * x_4 + 7.5 x_37 * x_6 + 3.5 x_37 * x_10 + 22.0 x_37 * x_11 + 3.0 x_37 * x_17 + 4.5 x_37 * x_18 - 23.0 x_37 * x_19 - 8.0 x_37 * x_20 + 24.0 x_37 * x_21 + 18.0 x_37 * x_23 - 8.0 x_37 * x_25 + 6.0 x_37 * x_26 + 2.5 x_37 * x_27 + 17.0 x_37 * x_28 - 7.0 x_37 * x_31 + 10.5 x_37 * x_33 + 6.5 x_37 * x_34 - 17.5 x_37 * x_35 + 2.0 x_37 * x_38 - 19.0 x_37 * x_39 + 18.0 x_37 * x_41 + 2.0 x_37 * x_42 - 20.5 x_37 * x_44 - 7.0 x_37 * x_45 + 24.0 x_37 * x_48 - 2.5 x_37 * x_49 - 12.0 x_37 * x_50 + 6.5 x_38 * x_6 - 23.5 x_38 * x_7 - 4.5 x_38 * x_8 - 3.0 x_38 * x_10 - 22.0 x_38 * x_12 - 15.0 x_38 * x_14 - 1.0 x_38 * x_15 + 23.5 x_38 * x_16 - 24.5 x_38 * x_17 - 15.0 x_38 * x_18 + 17.0 x_38 * x_19 - 6.0 x_38 * x_21 + 3.5 x_38 * x_22 + 24.5 x_38 * x_27 + 2.5 x_38 * x_30 + 20.5 x_38 * x_33 - 17.0 x_38 * x_35 + 2.0 x_38 * x_37 + 2.5 x_38 * x_41 + 12.0 x_38 * x_42 + 24.5 x_38 * x_44 - 8.5 x_38 * x_46 + 22.5 x_38 * x_48 - 10.5 x_38 * x_49 + 20.5 x_39 * x_1 + 20.5 x_39 * x_3 - 24.5 x_39 * x_7 + 23.5 x_39 * x_9 + 15.5 x_39 * x_11 - 11.0 x_39 * x_12 + 3.0 x_39 * x_14 - 21.0 x_39 * x_15 + 22.0 x_39 * x_18 + 15.0 x_39 * x_21 - 0.5 x_39 * x_22 + 24.5 x_39 * x_24 - 3.5 x_39 * x_27 - 24.0 x_39 * x_28 - 6.0 x_39 * x_32 - 9.0 x_39 * x_36 - 19.0 x_39 * x_37 + 7.5 x_39 * x_39 + 2.0 x_39 * x_42 - 9.0 x_39 * x_46 + 8.5 x_39 * x_49 - 17.5 x_39 * x_50 + 8.0 x_40 * x_7 - 1.0 x_40 * x_10 - 13.0 x_40 * x_14 + 4.0 x_40 * x_15 + 11.5 x_40 * x_16 + 17.5 x_40 * x_17 - 17.5 x_40 * x_19 - 19.0 x_40 * x_22 + 7.0 x_40 * x_23 - 23.5 x_40 * x_24 - 4.0 x_40 * x_27 + 8.0 x_40 * x_28 + 18.0 x_40 * x_30 - 11.5 x_40 * x_35 + 15.5 x_40 * x_43 + 9.0 x_40 * x_47 + 23.5 x_41 * x_1 + 14.5 x_41 * x_2 + 15.5 x_41 * x_3 - 20.5 x_41 * x_4 + 12.5 x_41 * x_7 - 2.0 x_41 * x_8 - 12.0 x_41 * x_10 - 9.5 x_41 * x_12 - 10.5 x_41 * x_13 + 6.0 x_41 * x_14 - 6.5 x_41 * x_15 - 19.5 x_41 * x_17 + 5.0 x_41 * x_18 - 19.5 x_41 * x_21 + 3.5 x_41 * x_23 + 5.5 x_41 * x_27 - 14.0 x_41 * x_28 + 4.5 x_41 * x_29 + 4.0 x_41 * x_30 - 12.5 x_41 * x_33 - 14.5 x_41 * x_36 + 18.0 x_41 * x_37 + 2.5 x_41 * x_38 + 10.0 x_41 * x_41 + 18.0 x_41 * x_43 + 10.0 x_41 * x_45 + 8.5 x_41 * x_50 + 10.5 x_42 * x_1 + 14.0 x_42 * x_2 - 21.5 x_42 * x_3 - 19.5 x_42 * x_4 + 14.0 x_42 * x_6 - 24.0 x_42 * x_8 - 14.5 x_42 * x_9 - 18.0 x_42 * x_11 - 19.0 x_42 * x_13 - 13.5 x_42 * x_14 + 5.5 x_42 * x_15 - 13.0 x_42 * x_17 - 11.0 x_42 * x_18 + 4.0 x_42 * x_19 + 18.5 x_42 * x_21 - 23.5 x_42 * x_22 + 21.5 x_42 * x_24 - 8.0 x_42 * x_25 + 10.5 x_42 * x_28 + 5.0 x_42 * x_29 + 21.5 x_42 * x_30 - 15.0 x_42 * x_33 - 7.0 x_42 * x_34 + 8.0 x_42 * x_35 + 2.0 x_42 * x_37 + 12.0 x_42 * x_38 + 2.0 x_42 * x_39 - 23.0 x_42 * x_42 + 2.5 x_42 * x_44 + 4.0 x_42 * x_46 - 2.0 x_42 * x_47 + 5.5 x_42 * x_49 - 16.5 x_42 * x_50 - 16.0 x_43 * x_1 - 7.0 x_43 * x_5 - 16.0 x_43 * x_6 + 3.5 x_43 * x_7 + 5.5 x_43 * x_8 + 17.5 x_43 * x_10 - 8.0 x_43 * x_12 + 24.0 x_43 * x_17 - 4.5 x_43 * x_18 + 14.5 x_43 * x_19 - 4.0 x_43 * x_20 + 0.5 x_43 * x_23 + 11.5 x_43 * x_24 - 16.0 x_43 * x_26 + 13.0 x_43 * x_28 + 18.0 x_43 * x_29 + 3.5 x_43 * x_33 + 22.5 x_43 * x_35 + 15.5 x_43 * x_40 + 18.0 x_43 * x_41 - 16.5 x_43 * x_46 + 3.0 x_43 * x_49 - 11.0 x_43 * x_50 + 1.5 x_44 * x_2 + 7.0 x_44 * x_5 + 12.5 x_44 * x_9 - 14.0 x_44 * x_10 - 24.0 x_44 * x_12 - 8.0 x_44 * x_17 + 23.5 x_44 * x_19 - 12.5 x_44 * x_20 - 4.0 x_44 * x_22 - 17.0 x_44 * x_23 - 11.5 x_44 * x_25 + 6.5 x_44 * x_26 + 24.5 x_44 * x_27 - 5.5 x_44 * x_29 + 8.5 x_44 * x_31 - 17.0 x_44 * x_32 - 12.5 x_44 * x_33 + 8.0 x_44 * x_34 - 20.5 x_44 * x_37 + 24.5 x_44 * x_38 + 2.5 x_44 * x_42 - 16.0 x_44 * x_44 - 19.5 x_44 * x_45 + 10.5 x_45 * x_1 + 1.5 x_45 * x_2 - 23.0 x_45 * x_6 + 7.0 x_45 * x_8 - 18.0 x_45 * x_10 + 12.0 x_45 * x_13 - 11.0 x_45 * x_15 + 16.5 x_45 * x_17 + 24.5 x_45 * x_18 - 24.0 x_45 * x_19 - 4.5 x_45 * x_20 - 8.0 x_45 * x_22 + 9.5 x_45 * x_23 + 5.5 x_45 * x_25 + 14.5 x_45 * x_26 + 15.5 x_45 * x_27 + 7.5 x_45 * x_29 + 6.5 x_45 * x_30 + 11.0 x_45 * x_33 - 7.0 x_45 * x_37 + 10.0 x_45 * x_41 - 19.5 x_45 * x_44 + 9.0 x_45 * x_45 - 11.0 x_45 * x_46 - 13.5 x_45 * x_49 - 21.5 x_45 * x_50 + 6.0 x_46 * x_1 - 10.0 x_46 * x_3 + 23.5 x_46 * x_4 - 18.0 x_46 * x_6 - 12.5 x_46 * x_7 + 1.0 x_46 * x_8 - 17.5 x_46 * x_10 - 21.5 x_46 * x_12 - 4.5 x_46 * x_13 + 4.0 x_46 * x_14 - 20.5 x_46 * x_17 - 2.0 x_46 * x_20 - 11.0 x_46 * x_21 - 23.0 x_46 * x_22 - 22.5 x_46 * x_26 - 3.0 x_46 * x_31 + 8.0 x_46 * x_33 - 10.5 x_46 * x_35 - 8.5 x_46 * x_38 - 9.0 x_46 * x_39 + 4.0 x_46 * x_42 - 16.5 x_46 * x_43 - 11.0 x_46 * x_45 + 24.0 x_46 * x_46 - 11.5 x_46 * x_47 + 14.0 x_46 * x_48 - 18.0 x_47 * x_1 + 24.0 x_47 * x_3 + 18.0 x_47 * x_5 - 15.0 x_47 * x_6 - 10.5 x_47 * x_8 - 18.5 x_47 * x_9 + 16.5 x_47 * x_11 + 15.5 x_47 * x_14 - 9.0 x_47 * x_16 + 7.0 x_47 * x_17 + 24.5 x_47 * x_18 - 19.0 x_47 * x_19 - 1.0 x_47 * x_22 - 18.5 x_47 * x_24 + 4.0 x_47 * x_25 - 3.5 x_47 * x_26 + 22.0 x_47 * x_28 - 19.0 x_47 * x_30 + 5.0 x_47 * x_31 + 4.0 x_47 * x_32 + 2.5 x_47 * x_33 + 21.5 x_47 * x_34 - 11.5 x_47 * x_36 + 9.0 x_47 * x_40 - 2.0 x_47 * x_42 - 11.5 x_47 * x_46 - 8.0 x_47 * x_49 + 4.0 x_48 * x_3 + 16.0 x_48 * x_4 - 18.0 x_48 * x_11 - 9.5 x_48 * x_12 - 18.5 x_48 * x_13 - 1.5 x_48 * x_15 + 19.0 x_48 * x_20 - 19.5 x_48 * x_22 - 5.5 x_48 * x_23 + 19.0 x_48 * x_24 - 13.0 x_48 * x_25 + 11.0 x_48 * x_26 - 13.0 x_48 * x_27 + 8.5 x_48 * x_29 + 11.0 x_48 * x_33 - 7.0 x_48 * x_35 + 24.0 x_48 * x_37 + 22.5 x_48 * x_38 + 14.0 x_48 * x_46 - 6.5 x_48 * x_48 - 2.0 x_48 * x_49 + 12.0 x_49 * x_1 - 3.5 x_49 * x_4 + 5.0 x_49 * x_5 + 11.5 x_49 * x_7 - 16.0 x_49 * x_8 + 2.0 x_49 * x_9 + 20.0 x_49 * x_11 + 4.5 x_49 * x_13 + 19.0 x_49 * x_15 + 21.0 x_49 * x_17 - 10.0 x_49 * x_20 + 7.0 x_49 * x_21 + 24.5 x_49 * x_22 - 13.5 x_49 * x_24 - 19.5 x_49 * x_25 + 10.0 x_49 * x_26 + 12.5 x_49 * x_27 - 6.5 x_49 * x_30 + 22.0 x_49 * x_32 - 12.5 x_49 * x_35 + 8.5 x_49 * x_36 - 2.5 x_49 * x_37 - 10.5 x_49 * x_38 + 8.5 x_49 * x_39 + 5.5 x_49 * x_42 + 3.0 x_49 * x_43 - 13.5 x_49 * x_45 - 8.0 x_49 * x_47 - 2.0 x_49 * x_48 - 22.0 x_49 * x_49 + 1.0 x_50 * x_3 - 23.0 x_50 * x_5 + 22.5 x_50 * x_7 + 22.0 x_50 * x_8 + 10.0 x_50 * x_9 - 8.0 x_50 * x_10 + 6.5 x_50 * x_13 + 6.0 x_50 * x_14 - 13.5 x_50 * x_19 + 2.5 x_50 * x_21 + 13.0 x_50 * x_26 + 24.5 x_50 * x_27 + 21.0 x_50 * x_28 - 12.0 x_50 * x_35 + 6.5 x_50 * x_36 - 12.0 x_50 * x_37 - 17.5 x_50 * x_39 + 8.5 x_50 * x_41 - 16.5 x_50 * x_42 - 11.0 x_50 * x_43 - 21.5 x_50 * x_45 ] + 39.0 x_1 + 45.0 x_2 + 0.0 x_3 + 0.0 x_4 + 0.0 x_5 + 0.0 x_6 + 0.0 x_7 + 0.0 x_8 + 45.0 x_9 + 34.0 x_10 + 18.0 x_11 - 20.0 x_12 + 0.0 x_13 + 0.0 x_14 + 0.0 x_15 + 42.0 x_16 + 0.0 x_17 + 0.0 x_18 + 0.0 x_19 + 0.0 x_20 - 27.0 x_21 - 8.0 x_22 + 37.0 x_23 - 47.0 x_24 - 15.0 x_25 + 0.0 x_26 - 32.0 x_27 + 0.0 x_28 - 23.0 x_29 - 47.0 x_30 + 25.0 x_31 + 40.0 x_32 + 0.0 x_33 + 6.0 x_34 + 6.0 x_35 + 0.0 x_36 + 5.0 x_37 + 40.0 x_38 - 37.0 x_39 + 0.0 x_40 + 14.0 x_41 - 17.0 x_42 + 7.0 x_43 + 44.0 x_44 + 0.0 x_45 + 44.0 x_46 + 47.0 x_47 + 0.0 x_48 - 25.0 x_49 - 24.0 x_50

Subject To
 e2: [  x_1 * x_2 ] = 0.0
 e3: [  x_1 * x_21 ] = 0.0
 e4: [  x_1 * x_32 ] = 0.0
 e5: [  x_1 * x_41 ] = 0.0
 e6: [  x_2 * x_24 ] = 0.0
 e7: [  x_2 * x_25 ] = 0.0
 e8: [  x_2 * x_44 ] = 0.0
 e9: [  x_3 * x_7 ] = 0.0
 e10: [  x_3 * x_15 ] = 0.0
 e11: [  x_3 * x_21 ] = 0.0
 e12: [  x_3 * x_24 ] = 0.0
 e13: [  x_3 * x_32 ] = 0.0
 e14: [  x_3 * x_39 ] = 0.0
 e15: [  x_4 * x_6 ] = 0.0
 e16: [  x_4 * x_24 ] = 0.0
 e17: [  x_4 * x_31 ] = 0.0
 e18: [  x_5 * x_10 ] = 0.0
 e19: [  x_5 * x_33 ] = 0.0
 e20: [  x_5 * x_43 ] = 0.0
 e21: [  x_6 * x_4 ] = 0.0
 e22: [  x_6 * x_7 ] = 0.0
 e23: [  x_7 * x_12 ] = 0.0
 e24: [  x_7 * x_24 ] = 0.0
 e25: [  x_7 * x_26 ] = 0.0
 e26: [  x_7 * x_43 ] = 0.0
 e27: [  x_8 * x_9 ] = 0.0
 e28: [  x_8 * x_23 ] = 0.0
 e29: [  x_8 * x_27 ] = 0.0
 e30: [  x_8 * x_45 ] = 0.0
 e31: [  x_8 * x_49 ] = 0.0
 e32: [  x_8 * x_50 ] = 0.0
 e33: [  x_9 * x_26 ] = 0.0
 e34: [  x_9 * x_42 ] = 0.0
 e35: [  x_9 * x_49 ] = 0.0
 e36: [  x_10 * x_2 ] = 0.0
 e37: [  x_10 * x_11 ] = 0.0
 e38: [  x_10 * x_15 ] = 0.0
 e39: [  x_10 * x_32 ] = 0.0
 e40: [  x_10 * x_37 ] = 0.0
 e41: [  x_11 * x_19 ] = 0.0
 e42: [  x_11 * x_30 ] = 0.0
 e43: [  x_11 * x_47 ] = 0.0
 e44: [  x_12 * x_17 ] = 0.0
 e45: [  x_12 * x_21 ] = 0.0
 e46: [  x_13 * x_7 ] = 0.0
 e47: [  x_13 * x_22 ] = 0.0
 e48: [  x_13 * x_50 ] = 0.0
 e49: [  x_14 * x_7 ] = 0.0
 e50: [  x_14 * x_9 ] = 0.0
 e51: [  x_14 * x_22 ] = 0.0
 e52: [  x_14 * x_24 ] = 0.0
 e53: [  x_14 * x_28 ] = 0.0
 e54: [  x_14 * x_39 ] = 0.0
 e55: [  x_15 * x_9 ] = 0.0
 e56: [  x_15 * x_19 ] = 0.0
 e57: [  x_15 * x_25 ] = 0.0
 e58: [  x_15 * x_39 ] = 0.0
 e59: [  x_15 * x_45 ] = 0.0
 e60: [  x_16 * x_11 ] = 0.0
 e61: [  x_16 * x_14 ] = 0.0
 e62: [  x_17 * x_3 ] = 0.0
 e63: [  x_17 * x_6 ] = 0.0
 e64: [  x_17 * x_42 ] = 0.0
 e65: [  x_18 * x_3 ] = 0.0
 e66: [  x_18 * x_31 ] = 0.0
 e67: [  x_18 * x_35 ] = 0.0
 e68: [  x_18 * x_36 ] = 0.0
 e69: [  x_19 * x_19 ] = 0.0
 e70: [  x_19 * x_37 ] = 0.0
 e71: [  x_20 * x_21 ] = 0.0
 e72: [  x_20 * x_37 ] = 0.0
 e73: [  x_20 * x_44 ] = 0.0
 e74: [  x_21 * x_4 ] = 0.0
 e75: [  x_21 * x_24 ] = 0.0
 e76: [  x_21 * x_42 ] = 0.0
 e77: [  x_21 * x_49 ] = 0.0
 e78: [  x_22 * x_3 ] = 0.0
 e79: [  x_22 * x_19 ] = 0.0
 e80: [  x_23 * x_43 ] = 0.0
 e81: [  x_23 * x_48 ] = 0.0
 e82: [  x_24 * x_23 ] = 0.0
 e83: [  x_24 * x_47 ] = 0.0
 e84: [  x_25 * x_26 ] = 0.0
 e85: [  x_25 * x_29 ] = 0.0
 e86: [  x_25 * x_34 ] = 0.0
 e87: [  x_25 * x_42 ] = 0.0
 e88: [  x_25 * x_45 ] = 0.0
 e89: [  x_25 * x_49 ] = 0.0
 e90: [  x_26 * x_11 ] = 0.0
 e91: [  x_26 * x_30 ] = 0.0
 e92: [  x_26 * x_49 ] = 0.0
 e93: [  x_27 * x_28 ] = 0.0
 e94: [  x_27 * x_32 ] = 0.0
 e95: [  x_27 * x_33 ] = 0.0
 e96: [  x_27 * x_35 ] = 0.0
 e97: [  x_27 * x_40 ] = 0.0
 e98: [  x_27 * x_49 ] = 0.0
 e99: [  x_29 * x_45 ] = 0.0
 e100: [  x_29 * x_48 ] = 0.0
 e101: [  x_30 * x_11 ] = 0.0
 e102: [  x_30 * x_23 ] = 0.0
 e103: [  x_30 * x_32 ] = 0.0
 e104: [  x_30 * x_42 ] = 0.0
 e105: [  x_31 * x_35 ] = 0.0
 e106: [  x_31 * x_36 ] = 0.0
 e107: [  x_33 * x_9 ] = 0.0
 e108: [  x_33 * x_21 ] = 0.0
 e109: [  x_33 * x_38 ] = 0.0
 e110: [  x_33 * x_44 ] = 0.0
 e111: [  x_34 * x_11 ] = 0.0
 e112: [  x_35 * x_27 ] = 0.0
 e113: [  x_35 * x_37 ] = 0.0
 e114: [  x_36 * x_19 ] = 0.0
 e115: [  x_36 * x_47 ] = 0.0
 e116: [  x_37 * x_11 ] = 0.0
 e117: [  x_37 * x_31 ] = 0.0
 e118: [  x_37 * x_38 ] = 0.0
 e119: [  x_38 * x_19 ] = 0.0
 e120: [  x_39 * x_22 ] = 0.0
 e121: [  x_39 * x_49 ] = 0.0
 e122: [  x_41 * x_3 ] = 0.0
 e123: [  x_41 * x_13 ] = 0.0
 e124: [  x_41 * x_18 ] = 0.0
 e125: [  x_42 * x_4 ] = 0.0
 e126: [  x_42 * x_14 ] = 0.0
 e127: [  x_42 * x_15 ] = 0.0
 e128: [  x_42 * x_19 ] = 0.0
 e129: [  x_42 * x_37 ] = 0.0
 e130: [  x_42 * x_42 ] = 0.0
 e131: [  x_43 * x_19 ] = 0.0
 e132: [  x_43 * x_46 ] = 0.0
 e133: [  x_44 * x_2 ] = 0.0
 e134: [  x_44 * x_23 ] = 0.0
 e135: [  x_45 * x_37 ] = 0.0
 e136: [  x_45 * x_46 ] = 0.0
 e137: [  x_46 * x_4 ] = 0.0
 e138: [  x_46 * x_7 ] = 0.0
 e139: [  x_46 * x_14 ] = 0.0
 e140: [  x_46 * x_43 ] = 0.0
 e141: [  x_47 * x_1 ] = 0.0
 e142: [  x_47 * x_14 ] = 0.0
 e143: [  x_47 * x_16 ] = 0.0
 e144: [  x_47 * x_18 ] = 0.0
 e145: [  x_47 * x_26 ] = 0.0
 e146: [  x_47 * x_33 ] = 0.0
 e147: [  x_49 * x_35 ] = 0.0
 e148: [  x_50 * x_7 ] = 0.0

Bounds
 x_1 <= 1.0
 x_2 <= 1.0
 x_3 <= 1.0
 x_4 <= 1.0
 x_5 <= 1.0
 x_6 <= 1.0
 x_7 <= 1.0
 x_8 <= 1.0
 x_9 <= 1.0
 x_10 <= 1.0
 x_11 <= 1.0
 x_12 <= 1.0
 x_13 <= 1.0
 x_14 <= 1.0
 x_15 <= 1.0
 x_16 <= 1.0
 x_17 <= 1.0
 x_18 <= 1.0
 x_19 <= 1.0
 x_20 <= 1.0
 x_21 <= 1.0
 x_22 <= 1.0
 x_23 <= 1.0
 x_24 <= 1.0
 x_25 <= 1.0
 x_26 <= 1.0
 x_27 <= 1.0
 x_28 <= 1.0
 x_29 <= 1.0
 x_30 <= 1.0
 x_31 <= 1.0
 x_32 <= 1.0
 x_33 <= 1.0
 x_34 <= 1.0
 x_35 <= 1.0
 x_36 <= 1.0
 x_37 <= 1.0
 x_38 <= 1.0
 x_39 <= 1.0
 x_40 <= 1.0
 x_41 <= 1.0
 x_42 <= 1.0
 x_43 <= 1.0
 x_44 <= 1.0
 x_45 <= 1.0
 x_46 <= 1.0
 x_47 <= 1.0
 x_48 <= 1.0
 x_49 <= 1.0
 x_50 <= 1.0

End